\* Problem: Unknown *\

Maximize
 obj: + xp_0_0 + xp_0_1 + xp_0_2 + xp_0_3 + xp_0_4 + xp_0_5 + xp_0_6
 + xp_1_0 + xp_1_1 + xp_2_0 + xp_2_1 + xp_2_2 + xp_2_3 + xp_2_4 + xp_3_0
 + xp_3_1 + xp_3_2 + xp_3_3 + xp_4_0 + xp_5_0 + xp_5_1 + xp_5_2 + xp_6_0
 + xp_6_1 + xp_7_0 + xp_7_1 + xp_8_0 + xp_8_1 + xp_9_0 + xp_10_0
 + xp_10_1 + xp_11_0 + xp_11_1 + xp_11_2 + xp_11_3 + xp_12_0 + xp_13_0
 + xp_13_1 + xp_14_0 + xp_14_1 + xp_15_0 + xp_16_0 + xp_16_1 + xp_17_0
 + xp_17_1 + xp_17_2 + xp_17_3 + xp_17_4 + xp_17_5 + xp_17_6 + xp_18_0
 + xp_18_1 + xp_18_2 + xp_19_0 + xp_19_1 + xp_19_2 + xp_19_3 + xp_19_4
 + xp_19_5 + xp_20_0 + xp_20_1 + xp_20_2 + xp_20_3 + xp_21_0 + xp_21_1
 + xp_21_2 + xp_21_3 + xp_21_4 + xp_22_0 + xp_22_1 + xp_22_2 + xp_22_3
 + xp_22_4 + xp_23_0 + xp_23_1 + xp_23_2

Subject To
 r_1: 0 xp_0_0 <= 25.9391100702576
 r_2: + xp_22_4 + xp_18_1 + xp_5_2 + xp_2_4 <= 25.7482284285119
 r_3: + xp_21_3 + xp_17_5 + xp_6_1 <= 26.5090230242688
 r_4: + xp_17_2 + xp_15_0 <= 26.9620253164557
 r_5: + xp_18_0 <= 25.6427184466019
 r_6: + xp_18_2 <= 26.2815479528884
 r_7: + xp_20_3 <= 25.9391100702576
 r_8: + xp_11_3 + xp_5_1 + xp_3_3 + xp_3_2 + xp_2_1 <= 25.7482284285119
 r_9: + xp_23_2 + xp_11_1 + xp_3_1 <= 26.5090230242688
 r_10: + xp_17_6 + xp_3_0 <= 26.9620253164557
 r_11: + xp_18_2 + xp_11_2 <= 25.6427184466019
 r_12: + xp_11_0 <= 26.2815479528884
 r_13: 0 xp_0_0 <= 27.3778920308483
 r_14: + xp_21_4 + xp_19_4 + xp_14_0 + xp_0_3 + xp_0_1
 <= 25.7482284285119
 r_15: + xp_21_0 + xp_19_3 <= 26.5090230242688
 r_16: + xp_22_2 + xp_21_1 + xp_0_6 + xp_0_4 + xp_0_2
 <= 26.7924528301887
 r_17: + xp_0_0 <= 25.6427184466019
 r_18: + xp_21_3 + xp_4_0 <= 25.9391100702576
 r_19: + xp_19_0 <= 25.9391100702576
 r_20: + xp_21_2 + xp_19_5 + xp_19_2 + xp_19_1 + xp_14_1 + xp_0_5
 <= 27.3778920308483
 r_21: + xp_20_1 <= 25.7482284285119
 r_22: + xp_21_4 + xp_7_1 <= 26.5090230242688
 r_23: + xp_22_4 + xp_22_3 + xp_17_3 + xp_3_3 <= 26.7924528301887
 r_24: + xp_17_4 + xp_3_2 + xp_0_3 <= 26.6425279789335
 r_25: 0 xp_0_0 <= 27.3778920308483
 r_26: + xp_18_1 + xp_0_5 + xp_0_1 <= 25.6427184466019
 r_27: + xp_11_3 <= 25.7482284285119
 r_28: + xp_19_4 + xp_19_1 + xp_10_1 <= 25.7482284285119
 r_29: + xp_20_2 <= 26.5090230242688
 r_30: + xp_2_0 <= 26.5090230242688
 r_31: + xp_23_2 + xp_17_5 + xp_6_1 + xp_3_1 + xp_2_3
 <= 26.6425279789335
 r_32: + xp_2_2 <= 27.3778920308483
 r_33: + xp_11_1 + xp_2_4 <= 26.5090230242688
 r_34: + xp_19_5 + xp_19_3 + xp_2_1 <= 26.5090230242688
 r_35: 0 xp_0_0 <= 26.7924528301887
 r_36: + xp_9_0 <= 26.7924528301887
 r_37: + xp_21_1 + xp_13_1 + xp_8_1 + xp_0_6 <= 26.6425279789335
 r_38: + xp_1_1 <= 26.7924528301887
 r_39: + xp_17_3 + xp_17_1 + xp_3_3 + xp_0_4 <= 26.9620253164557
 r_40: + xp_0_2 <= 25.6427184466019
 r_41: + xp_12_0 + xp_2_3 <= 26.6425279789335
 r_42: + xp_21_1 <= 26.6425279789335
 r_43: + xp_16_0 <= 26.6425279789335
 r_44: + xp_23_2 + xp_23_1 + xp_16_1 <= 26.6425279789335
 r_45: + xp_17_5 + xp_17_4 + xp_3_2 + xp_3_1 <= 26.9620253164557
 r_46: + xp_0_6 + xp_0_3 <= 25.6427184466019
 r_47: + xp_22_1 + xp_16_1 + xp_13_1 <= 26.7924528301887
 r_48: + xp_13_0 <= 26.6425279789335
 r_49: 0 xp_0_0 <= 26.9620253164557
 r_50: 0 xp_0_0 <= 25.6427184466019
 r_51: + xp_8_1 + xp_1_1 <= 26.9620253164557
 r_52: + xp_8_0 <= 26.9620253164557
 r_53: + xp_1_0 <= 26.9620253164557
 r_54: + xp_0_4 <= 25.6427184466019
 r_55: 0 xp_0_0 <= 26.9620253164557
 r_56: 0 xp_0_0 <= 26.9620253164557
 r_57: + xp_22_2 <= 25.6427184466019
 r_58: + xp_22_3 + xp_17_4 + xp_17_3 + xp_5_0 <= 25.6427184466019
 r_59: + xp_22_0 + xp_17_1 <= 25.6427184466019
 r_60: + xp_23_1 + xp_6_0 <= 25.6427184466019
 r_61: + xp_23_0 + xp_22_1 <= 25.6427184466019
 r_62: + xp_17_0 <= 25.6427184466019
 r_63: + xp_22_4 + xp_17_5 + xp_17_2 + xp_11_2 + xp_6_1 + xp_5_2
 <= 25.6427184466019
 r_64: + xp_23_2 + xp_17_6 + xp_5_1 <= 25.6427184466019
 r_65: + xp_20_1 + xp_19_1 + xp_14_1 + xp_10_1 + xp_7_1 + xp_2_2
 + xp_0_5 <= 27.3778920308483
 r_66: + xp_21_2 + xp_20_2 + xp_19_5 + xp_7_0 <= 27.3778920308483
 r_67: + xp_20_3 + xp_19_2 + xp_10_0 <= 27.3778920308483
 r_68: + xp_20_0 <= 27.3778920308483

Bounds
 0 <= xp_0_0 <= 27.184359287913
 0 <= xp_0_1 <= 2.27931331281176
 0 <= xp_0_2 <= 14.8826872180041
 0 <= xp_0_3 <= 4.8603284609069
 0 <= xp_0_4 <= 3.72067180450102
 0 <= xp_0_5 <= 3.41896996921764
 0 <= xp_0_6 <= 3.72067180450102
 0 <= xp_1_0 <= 19.2178651777365
 0 <= xp_1_1 <= 14.4133988833024
 0 <= xp_2_0 <= 20.6368698732243
 0 <= xp_2_1 <= 3.72067180450102
 0 <= xp_2_2 <= 1.0167554253596
 0 <= xp_2_3 <= 2.03351085071921
 0 <= xp_2_4 <= 5.75418265522023
 0 <= xp_3_0 <= 23.6871510319903
 0 <= xp_3_1 <= 2.04468030747632
 0 <= xp_3_2 <= 1.36312020498421
 0 <= xp_3_3 <= 3.72067180450102
 0 <= xp_4_0 <= 25.0279174407731
 0 <= xp_5_0 <= 17.8770838862665
 0 <= xp_5_1 <= 3.5754167772533
 0 <= xp_5_2 <= 3.5754167772533
 0 <= xp_6_0 <= 19.3072505971678
 0 <= xp_6_1 <= 3.21787509952797
 0 <= xp_7_0 <= 15.4189848519049
 0 <= xp_7_1 <= 6.16759394076194
 0 <= xp_8_0 <= 16.6256880142279
 0 <= xp_8_1 <= 2.77094800237131
 0 <= xp_9_0 <= 17.9888156605557
 0 <= xp_10_0 <= 15.4189848519049
 0 <= xp_10_1 <= 2.56983080865081
 0 <= xp_11_0 <= 26.0447026315071
 0 <= xp_11_1 <= 13.9329336504999
 0 <= xp_11_2 <= 5.10613092299946
 0 <= xp_11_3 <= 11.8547449727523
 0 <= xp_12_0 <= 16.8938442725218
 0 <= xp_13_0 <= 14.0782035604349
 0 <= xp_13_1 <= 2.34636726007248
 0 <= xp_14_0 <= 13.4078129146999
 0 <= xp_14_1 <= 2.23463548578331
 0 <= xp_15_0 <= 15.4860239164784
 0 <= xp_16_0 <= 12.7374222689649
 0 <= xp_16_1 <= 2.12290371149415
 0 <= xp_17_0 <= 27.3072605189593
 0 <= xp_17_1 <= 2.49161484597659
 0 <= xp_17_2 <= 2.49161484597659
 0 <= xp_17_3 <= 2.49161484597659
 0 <= xp_17_4 <= 2.49161484597659
 0 <= xp_17_5 <= 3.72067180450102
 0 <= xp_17_6 <= 2.49161484597659
 0 <= xp_18_0 <= 20.8268176101877
 0 <= xp_18_1 <= 6.67037576304778
 0 <= xp_18_2 <= 14.1117193720498
 0 <= xp_19_0 <= 28.2011221546162
 0 <= xp_19_1 <= 2.15641952310909
 0 <= xp_19_2 <= 4.31283904621819
 0 <= xp_19_3 <= 2.15641952310909
 0 <= xp_19_4 <= 2.15641952310909
 0 <= xp_19_5 <= 2.15641952310909
 0 <= xp_20_0 <= 26.413406324646
 0 <= xp_20_1 <= 5.76535955332095
 0 <= xp_20_2 <= 4.08937549763985
 0 <= xp_20_3 <= 4.08937549763985
 0 <= xp_21_0 <= 27.8435804768909
 0 <= xp_21_1 <= 3.59775569076753
 0 <= xp_21_2 <= 3.59775569076753
 0 <= xp_21_3 <= 1.79887784538376
 0 <= xp_21_4 <= 1.79887784538376
 0 <= xp_22_0 <= 25.474859420617
 0 <= xp_22_1 <= 3.72067180450102
 0 <= xp_22_2 <= 1.57541429680543
 0 <= xp_22_3 <= 3.15082859361086
 0 <= xp_22_4 <= 3.15082859361086
 0 <= xp_23_0 <= 25.474859420617
 0 <= xp_23_1 <= 6.87150039811188
 0 <= xp_23_2 <= 4.72624289041629

End
